NAME : a280
COMMENT : Algorithm MST_CLRS(+2opt)
COMMENT : Length 2862 
COMMENT : Elapsed time 0.003937 seconds
TYPE : TOUR
DIMENSION : 280
TOUR_SECTION
1
2
280
3
279
4
5
6
7
9
8
10
11
12
13
14
15
17
18
19
20
21
128
127
126
125
30
31
29
24
23
25
22
26
27
28
32
33
34
124
123
122
121
120
119
157
158
159
160
175
161
174
173
106
107
110
111
114
115
117
116
86
113
87
84
85
65
64
63
59
62
118
61
60
43
42
41
40
39
35
36
37
38
48
49
50
51
52
53
47
46
54
55
56
45
44
57
58
68
69
67
66
70
71
72
73
74
75
76
77
78
79
80
92
93
94
95
96
97
98
99
100
101
169
102
103
91
90
89
81
82
83
88
112
109
108
104
105
170
171
172
168
167
166
165
164
163
162
184
183
182
180
179
181
176
177
178
151
152
156
153
155
154
129
130
131
132
133
134
135
136
137
150
149
148
147
146
145
199
198
197
193
186
185
187
188
189
190
191
192
194
195
196
201
200
202
203
221
220
217
216
213
212
214
215
218
219
222
223
224
225
226
227
228
233
234
235
236
237
232
231
246
238
239
245
240
241
242
243
244
247
248
249
250
251
230
229
211
210
209
252
255
256
258
259
260
261
262
263
257
254
253
208
207
206
205
204
144
143
142
141
140
139
138
266
265
264
267
268
269
270
16
271
272
273
274
275
276
277
278
EOF
